%mem=4800MB
%nprocshared=12
%chk=11.chk
# opt freq b3lyp/6-31+g(d,p) scf=xqc

mydftmodel_sets

0 1
 N                  0.24430000   -0.86210000   -0.10720000
 N                  1.27580000    1.76080000    0.11010000
 C                 -0.57930000    0.18580000   -0.01290000
 C                 -0.04720000    1.53720000    0.07090000
 C                 -2.02650000   -0.01270000   -0.03970000
 C                  1.56910000   -0.63620000   -0.09010000
 C                  2.09430000    0.70020000    0.03840000
 C                 -0.93170000    2.65560000    0.08260000
 C                 -2.82460000    1.12250000   -0.04280000
 C                 -2.28140000    2.43600000    0.01140000
 C                  2.47610000   -1.73410000   -0.19610000
 C                  3.51030000    0.88980000    0.07460000
 C                  3.83040000   -1.51320000   -0.16240000
 C                  4.35110000   -0.19010000   -0.02310000
 H                 -2.45766179   -1.00276058   -0.05641999
 H                  5.41005276   -0.03941167    0.00539701
 H                 -3.88724084    1.00550298   -0.08758997
 H                  3.91520202    1.87482021    0.17799028
 N                 -3.19348060    3.58863548   -0.00958676
 H                 -2.68344416    4.41286065   -0.25558615
 N                  4.75529354   -2.65061482   -0.27084108
 H                  4.33101869   -3.37455483   -0.81480957
 C                 -3.79381845    3.76272814    1.32089669
 C                 -3.71541639    4.99763848    1.96535072
 C                 -4.44192361    2.69341784    1.93902558
 C                 -4.28443171    5.16292184    3.22793723
 H                 -3.20372457    5.84024947    1.47809309
 C                 -5.01202319    2.85886190    3.20157246
 H                 -4.50396401    1.72009684    1.43116119
 C                 -4.93326629    4.09331414    3.84613591
 H                 -4.22212808    6.13608618    3.73623433
 H                 -5.52332059    2.01569424    3.68851957
 H                 -5.38189005    4.22388883    4.84161735
 C                  5.06174401   -3.16277899    1.07254121
 C                  5.01333181   -4.53424024    1.32398054
 C                  5.40102455   -2.27771776    2.09582194
 C                  5.30349184   -5.02038699    2.59861391
 H                  4.74506602   -5.23168156    0.51722727
 C                  5.69226186   -2.76393087    3.37065037
 H                  5.43940224   -1.19677623    1.89777754
 C                  5.64341940   -4.13501163    3.62222335
 H                  5.26474189   -6.10132349    2.79703577
 H                  5.96013927   -2.06589537    4.17716284
 H                  5.87221697   -4.51855897    4.62713103
 N                 -0.40234978    4.02420572    0.16981651
 O                  0.78615195    4.17321820    0.23046095
 O                 -1.18011734    4.93713343    0.17684459
 N                  1.95878962   -3.10236821   -0.34146872
 O                  0.86377320   -3.34615164    0.08270993
 O                  2.65241322   -3.92026244   -0.87844553

