%mem=4800MB
%nprocshared=12
%chk=2.chk
# opt freq b3lyp/6-31+g(d,p) scf=xqc

mydftmodel_sets

0 1
 N                  0.24430000   -0.86210000   -0.10720000
 N                  1.27580000    1.76080000    0.11010000
 C                 -0.57930000    0.18580000   -0.01290000
 C                 -0.04720000    1.53720000    0.07090000
 C                 -2.02650000   -0.01270000   -0.03970000
 C                  1.56910000   -0.63620000   -0.09010000
 C                  2.09430000    0.70020000    0.03840000
 C                 -0.93170000    2.65560000    0.08260000
 C                 -2.82460000    1.12250000   -0.04280000
 C                 -2.28140000    2.43600000    0.01140000
 C                  2.47610000   -1.73410000   -0.19610000
 C                  3.51030000    0.88980000    0.07460000
 C                  3.83040000   -1.51320000   -0.16240000
 C                  4.35110000   -0.19010000   -0.02310000
 H                 -0.50040000    3.64900000    0.13710000
 H                  2.05840000   -2.73050000   -0.30150000
 H                  3.88320000    1.90410000    0.17540000
 H                 -2.45766179   -1.00276058   -0.05641999
 F                  5.68853384   -0.00899953    0.00809850
 F                  4.68703528   -2.55195263   -0.26073094
 F                 -3.13585558    3.48117673    0.01475470
 F                 -4.16848152    0.99771100   -0.07296877

