%mem=4800MB
%nprocshared=12
%chk=4.chk
# opt freq b3lyp/6-31+g(d,p) scf=xqc

mydftmodel_sets

0 1
 N                  0.00431479    1.36503144    0.00028621
 N                  0.01110229   -1.37406013   -0.00010872
 C                  1.16445083    0.69905422    0.00019038
 C                  1.16792351   -0.70234146   -0.00000905
 C                  2.37635877    1.40275949    0.00029413
 C                 -1.15250642    0.69331277    0.00018761
 C                 -1.14903375   -0.70808291   -0.00001525
 C                  2.38330412   -1.40003188   -0.00010866
 C                  3.59173938    0.70506907    0.00019421
 C                  3.59521206   -0.69632661   -0.00000854
 H                  2.38595558   -2.47002858   -0.00026428
 H                  4.51705798    1.24236366    0.00027480
 H                  4.52318213   -1.22902872   -0.00008364
 H                  2.37370730    2.47275619    0.00045046
 C                 -2.36788704    1.39100319    0.00028684
 C                 -3.57979497    0.68729792    0.00018838
 C                 -2.37135971    2.79239887    0.00048589
 C                 -3.58674033    3.49008928    0.00058776
 H                 -1.44604111    3.32969346    0.00056154
 C                 -4.79864826    2.78638402    0.00048855
 H                 -3.58939179    4.56008599    0.00073908
 H                 -5.72661833    3.31908613    0.00056323
 C                 -3.57632230   -0.71409777   -0.00001349
 C                 -2.36094168   -1.41178818   -0.00011680
 C                 -4.78475755   -2.81919872   -0.00031293
 C                 -2.35746901   -2.81318386   -0.00032061
 C                 -3.56937694   -3.51688913   -0.00041806
 H                 -5.71007616   -3.35649330   -0.00039059
 H                 -1.42949894   -3.34588598   -0.00040264
 H                 -3.56672548   -4.58688583   -0.00057599
 N                 -4.79517559    1.38498833    0.00028941
 N                 -4.78823023   -1.41780303   -0.00011088

