%mem=4800MB
%nprocshared=12
%chk=5.chk
# opt freq b3lyp/6-31+g(d,p) scf=xqc

mydftmodel_sets

0 1
 N                  0.00431479    1.36503144    0.00028621
 N                  0.01110229   -1.37406013   -0.00010872
 C                 -1.15250642    0.69331277    0.00018761
 C                 -1.14903375   -0.70808291   -0.00001525
 C                 -2.36788704    1.39100319    0.00028684
 C                 -3.57979497    0.68729792    0.00018838
 C                 -2.37135971    2.79239887    0.00048589
 C                 -3.58674033    3.49008928    0.00058776
 H                 -1.44604111    3.32969346    0.00056154
 C                 -4.79864826    2.78638402    0.00048855
 H                 -3.58939179    4.56008599    0.00073908
 H                 -5.72661833    3.31908613    0.00056323
 C                 -3.57632230   -0.71409777   -0.00001349
 C                 -2.36094168   -1.41178818   -0.00011680
 C                 -4.78475755   -2.81919872   -0.00031293
 C                 -2.35746901   -2.81318386   -0.00032061
 C                 -3.56937694   -3.51688913   -0.00041806
 H                 -5.71007616   -3.35649330   -0.00039059
 H                 -1.42949894   -3.34588598   -0.00040264
 H                 -3.56672548   -4.58688583   -0.00057599
 N                 -4.79517559    1.38498833    0.00028941
 N                 -4.78823023   -1.41780303   -0.00011088
 C                  1.20073958    0.66626913   -0.06263610
 C                  1.24694565   -0.73036209    0.04323264
 C                  2.38871691    1.39928015   -0.18643718
 C                  3.62289999    0.73565954   -0.20437465
 C                  2.34251105    2.79591166   -0.29230213
 C                  3.53048823    3.52892247   -0.41610584
 H                  1.40018485    3.30260069   -0.27860695
 C                  4.76467135    2.86530193   -0.43404256
 H                  3.49520907    4.59528168   -0.49693542
 H                  5.67171846    3.42497218   -0.52856635
 C                  3.66910600   -0.66097176   -0.09850689
 C                  2.48112891   -1.39398246    0.02529824
 C                  4.94949504   -2.72122373   -0.01057749
 C                  2.52733503   -2.79061360    0.13116794
 C                  3.76151806   -3.45423429    0.11322946
 H                  5.89182136   -3.22791259   -0.02427068
 H                  1.62028834   -3.35028330    0.22569904
 H                  3.79679759   -4.52059298    0.19406562
 N                  4.81087721    1.46867041   -0.32817752
 N                  4.90328903   -1.32459244   -0.11644543

